<number of tasks>
32

<cycle time>
1414

<task times>
1 458
2 276
3 520
4 1400
5 352
6 196
7 214
8 456
9 646
10 512
11 408
12 262
13 544
14 202
15 458
16 694
17 616
18 678
19 328
20 324
21 100
22 352
23 544
24 500
25 382
26 858
27 388
28 352
29 428
30 238
31 258
32 196

<task process alternatives>
1: 367,15 ; 550,8
2: 221,15 ; 332,8
3: 416,15 ; 624,8
4: 1120,15 ; 1680,8
5: 282,15 ; 423,8
6: 157,15 ; 236,8
7: 172,15 ; 257,8
8: 365,15 ; 548,8
9: 517,15 ; 776,8
10: 410,15 ; 615,8
11: 327,15 ; 490,8
12: 210,15 ; 315,8
13: 436,15 ; 653,8
14: 162,15 ; 243,8
15: 367,15 ; 550,8
16: 556,15 ; 833,8
17: 493,15 ; 740,8
18: 543,15 ; 814,8
19: 263,15 ; 394,8
20: 260,15 ; 389,8
21: 80,15 ; 120,8
22: 282,15 ; 423,8
23: 436,15 ; 653,8
24: 400,15 ; 600,8
25: 306,15 ; 459,8
26: 687,15 ; 1030,8
27: 311,15 ; 466,8
28: 282,15 ; 423,8
29: 343,15 ; 514,8
30: 191,15 ; 286,8
31: 207,15 ; 310,8
32: 157,15 ; 236,8

<incompatible tasks>
10,13
23,31
25,13
26,14

<precedence relations>
26,27
12,13
21,22
14,16
31,32
4,15
9,11
8,21
27,28
13,14
6,8
15,17
24,32
3,9
5,6
21,24
22,25
9,10
1,5
19,20
28,29
30,31
6,7
16,18
7,21
18,21
21,23
20,21
29,30
14,17
17,19
23,32
11,12
10,16
2,6
13,15
6,9
25,26

<number of task attributes>
3

<task attribute values>
1,1:70
1,2:68
1,3:2
2,1:6
2,2:28
2,3:35
3,2:94
3,3:7
4,1:69
4,2:69
4,3:13
5,1:21
5,3:18
6,1:2
6,2:1
6,3:28
7,1:7
7,2:3
7,3:59
8,1:80
8,2:71
8,3:47
9,1:45
9,3:3
10,1:18
10,2:15
10,3:17
11,1:75
11,2:72
11,3:84
12,1:6
12,2:25
12,3:15
13,1:15
14,3:10
15,1:84
15,2:19
15,3:6
16,1:56
16,2:57
16,3:24
17,1:13
17,2:3
17,3:66
18,1:43
18,2:26
18,3:19
19,1:1
19,2:2
19,3:2
20,1:35
20,2:21
20,3:35
21,1:3
21,2:72
21,3:49
22,1:18
22,2:4
22,3:6
23,1:32
23,2:14
23,3:63
24,1:43
24,2:1
24,3:9
25,1:79
25,2:90
25,3:21
26,1:8
26,2:5
26,3:9
27,1:7
27,2:61
27,3:25
28,1:44
28,2:15
29,1:81
29,2:92
29,3:99
30,1:16
30,2:2
31,1:2
31,2:2
32,2:3

<attribute bounds per station>
1:100
2:100
3:100

<incompatible tasks>
1,8
1,28
2,12
3,10
3,14
3,27
3,31
4,20
4,21
5,9
5,13
5,20
5,21
6,16
6,17
7,13
7,25
8,15
9,14
9,23
9,32
10,13
10,15
10,16
10,31
11,27
12,18
12,24
12,32
13,16
13,20
14,21
14,25
15,18
15,25
16,25
16,32
18,19
19,30
20,25
20,26
20,29
24,26
24,32
25,27
26,29
28,30

<optimal SALBP-1 value>
11

<rand seed>
236278236

<end>
